NAME: instance_1956
TYPE: TSP
DIMENSION: 20
EDGE_WEIGHT_TYPE: EUC_2D
NODE_COORD_SECTION
0 43.36 89.47
1 70.84 97.01
2 85.83 79.72
3 30.09 26.98
4 38.18 10.20
5 9.50 54.00
6 98.81 3.77
7 41.44 93.91
8 35.01 29.00
9 1.02 50.51
10 0.31 49.12
11 34.57 26.29
12 28.77 10.88
13 26.75 20.02
14 59.87 98.46
15 41.70 43.34
16 47.66 52.53
17 46.00 62.53
18 34.74 54.56
19 34.90 17.42
EOF
